c Circuit-CNF generated by TG-PRO v1.0 (c) Huan Chen and Joao Marques-Silva
p cnf 329 861
1 2 0
-1 -2 0
3 4 0
-3 -4 0
5 6 0
-5 -6 0
7 8 0
-7 -8 0
9 10 0
-9 -10 0
11 12 0
-11 -12 0
-13 -14 0
-13 -15 0
13 14 15 0
-16 -17 0
-16 -15 0
16 17 15 0
18 19 0
18 20 0
-18 -19 -20 0
21 22 0
21 23 0
-21 -22 -23 0
-24 -25 0
-24 -15 0
24 25 15 0
-26 -27 0
-26 -28 0
26 27 28 0
-29 -30 0
-29 -31 0
29 30 31 0
-32 -33 0
-32 -34 0
32 33 34 0
-35 -36 0
-35 -37 0
35 36 37 0
-38 -39 0
-38 -40 0
38 39 40 0
-41 -42 0
-41 -43 0
41 42 43 0
44 45 0
44 46 0
-44 -45 -46 0
-47 -48 0
-47 -15 0
47 48 15 0
-49 -50 0
-49 -51 0
49 50 51 0
-52 -53 0
-52 -54 0
52 53 54 0
-55 -56 0
-55 -57 0
55 56 57 0
-58 -59 0
-58 -60 0
58 59 60 0
-61 -62 0
-61 -63 0
61 62 63 0
-64 -65 0
-64 -66 0
64 65 66 0
-67 -68 0
-67 -15 0
67 68 15 0
-69 -70 0
-69 -15 0
69 70 15 0
71 72 0
-71 -72 0
73 74 0
-73 -74 0
75 76 0
-75 -76 0
77 14 0
-77 -14 0
78 79 0
-78 -79 0
80 81 0
-80 -81 0
82 81 0
-82 -81 0
83 81 0
-83 -81 0
84 85 0
-84 -85 0
86 85 0
-86 -85 0
87 85 0
-87 -85 0
88 89 0
-88 -89 0
90 89 0
-90 -89 0
91 92 0
-91 -92 0
93 92 0
-93 -92 0
94 92 0
-94 -92 0
95 96 0
-95 -96 0
97 98 0
-97 -98 0
99 100 0
-99 -100 0
101 100 0
-101 -100 0
102 103 0
-102 -103 0
2 104 0
-2 -104 0
105 104 0
-105 -104 0
106 107 0
-106 -107 0
4 108 0
-4 -108 0
109 108 0
-109 -108 0
110 111 0
-110 -111 0
112 113 0
-112 -113 0
6 113 0
-6 -113 0
114 115 0
-114 -115 0
116 115 0
-116 -115 0
8 117 0
-8 -117 0
118 119 0
-118 -119 0
10 120 0
-10 -120 0
121 122 0
-121 -122 0
12 122 0
-12 -122 0
123 124 0
-123 -124 0
125 124 0
-125 -124 0
15 71 0
-15 -71 0
126 73 0
-126 -73 0
127 75 0
-127 -75 0
128 118 0
-128 -118 0
129 128 0
-129 -128 0
130 15 0
-130 -15 0
131 126 0
-131 -126 0
132 127 0
-132 -127 0
43 130 0
-43 -130 0
-51 -133 0
-51 -134 0
51 133 134 0
135 51 0
-135 -51 0
-136 14 0
-136 79 0
136 -14 -79 0
-137 138 0
-137 96 0
137 -138 -96 0
-139 140 0
-139 117 0
139 -140 -117 0
-141 77 0
-141 78 0
141 -77 -78 0
-142 80 0
-142 92 0
142 -80 -92 0
-143 83 0
-143 90 0
143 -83 -90 0
-144 90 0
-144 81 0
144 -90 -81 0
-145 81 0
-145 91 0
145 -81 -91 0
-146 147 0
-146 89 0
146 -147 -89 0
-148 94 0
-148 83 0
148 -94 -83 0
-149 150 0
-149 103 0
149 -150 -103 0
-151 152 0
-151 103 0
151 -152 -103 0
-153 77 0
-153 95 0
153 -77 -95 0
-154 78 0
-154 95 0
154 -78 -95 0
155 156 0
155 14 0
-155 -156 -14 0
-27 102 0
-27 155 0
27 -102 -155 0
-157 89 0
-157 105 0
157 -89 -105 0
-158 109 0
-158 81 0
158 -109 -81 0
-159 110 0
-159 115 0
159 -110 -115 0
-160 110 0
-160 115 0
160 -110 -115 0
-56 161 0
-56 92 0
56 -161 -92 0
-162 111 0
-162 114 0
162 -111 -114 0
-163 110 0
-163 118 0
163 -110 -118 0
-65 121 0
-65 89 0
65 -121 -89 0
-164 126 0
-164 100 0
164 -126 -100 0
-165 127 0
-165 124 0
165 -127 -124 0
-166 -89 0
-166 -82 0
166 89 82 0
-167 168 0
-167 166 0
167 -168 -166 0
-133 169 0
-133 166 0
133 -169 -166 0
170 171 0
170 14 0
-170 -171 -14 0
-172 99 0
-172 170 0
172 -99 -170 0
-173 99 0
-173 170 0
173 -99 -170 0
-174 99 0
-174 170 0
174 -99 -170 0
-175 176 0
-175 170 0
175 -176 -170 0
-177 178 0
-177 170 0
177 -178 -170 0
-179 180 0
-179 170 0
179 -180 -170 0
-181 182 0
-181 170 0
181 -182 -170 0
-183 184 0
-183 170 0
183 -184 -170 0
-185 -106 0
-185 -102 0
185 106 102 0
-186 187 0
-186 185 0
186 -187 -185 0
188 189 0
188 107 0
-188 -189 -107 0
-190 84 0
-190 188 0
190 -84 -188 0
-191 130 0
-191 106 0
191 -130 -106 0
-192 99 0
-192 130 0
192 -99 -130 0
-193 194 0
-193 111 0
193 -194 -111 0
-195 130 0
-195 115 0
195 -130 -115 0
-196 197 0
-196 115 0
196 -197 -115 0
-198 130 0
-198 119 0
198 -130 -119 0
-199 131 0
-199 101 0
199 -131 -101 0
-200 132 0
-200 125 0
200 -132 -125 0
201 202 0
201 166 0
-201 -202 -166 0
-203 97 0
-203 201 0
203 -97 -201 0
-134 97 0
-134 201 0
134 -97 -201 0
204 205 0
204 99 0
-204 -205 -99 0
-206 207 0
-206 204 0
206 -207 -204 0
-208 -209 0
-208 -115 0
208 209 115 0
-210 211 0
-210 204 0
210 -211 -204 0
-212 -213 0
-212 -96 0
212 213 96 0
-214 -163 0
-214 -159 0
214 163 159 0
-215 216 0
-215 214 0
215 -216 -214 0
-217 -218 0
-217 -129 0
217 218 129 0
-219 220 0
-219 217 0
219 -220 -217 0
-221 222 0
-221 217 0
221 -222 -217 0
-63 115 0
-63 51 0
63 -115 -51 0
-223 -139 0
-223 -146 0
223 139 146 0
-59 224 0
-59 223 0
59 -224 -223 0
225 226 0
225 89 0
-225 -226 -89 0
-62 135 0
-62 225 0
62 -135 -225 0
227 -85 0
227 -89 0
-227 85 89 0
228 -92 0
228 -81 0
-228 92 81 0
229 -107 0
229 -111 0
-229 107 111 0
230 -231 0
230 -96 0
-230 231 96 0
232 -83 0
232 -113 0
-232 83 113 0
233 -83 0
233 -89 0
-233 83 89 0
234 -83 0
234 -120 0
-234 83 120 0
235 -83 0
235 -89 0
-235 83 89 0
236 -237 0
236 -81 0
-236 237 81 0
238 -88 0
238 -81 0
-238 88 81 0
239 -240 0
239 -90 0
-239 240 90 0
241 -242 0
241 -90 0
-241 242 90 0
243 -94 0
243 -120 0
-243 94 120 0
244 -245 0
244 -89 0
-244 245 89 0
246 -247 0
246 -108 0
-246 247 108 0
248 -249 0
248 -102 0
-248 249 102 0
205 -250 0
205 -102 0
-205 250 102 0
251 -252 0
251 -110 0
-251 252 110 0
253 -254 0
253 -118 0
-253 254 118 0
-255 -256 0
-255 -77 0
255 256 77 0
257 -100 0
257 -255 0
-257 100 255 0
258 259 0
258 107 0
-258 -259 -107 0
260 261 0
260 119 0
-260 -261 -119 0
-262 -149 0
-262 -100 0
262 149 100 0
19 -263 0
19 -262 0
-19 263 262 0
264 265 0
264 85 0
-264 -265 -85 0
22 -266 0
22 -262 0
-22 266 262 0
-267 -268 0
-267 -188 0
267 268 188 0
46 -269 0
46 -267 0
-46 269 267 0
-270 -271 0
-270 -188 0
270 271 188 0
20 -272 0
20 -270 0
-20 272 270 0
273 110 0
273 107 0
-273 -110 -107 0
274 275 0
274 114 0
-274 -275 -114 0
276 257 0
276 238 0
-276 -257 -238 0
45 -277 0
45 -276 0
-45 277 276 0
-278 -279 0
-278 -280 0
278 279 280 0
23 -281 0
23 -278 0
-23 281 278 0
282 -283 0
282 -117 0
-282 283 117 0
284 -135 0
284 -116 0
-284 135 116 0
-285 -84 0
-285 -118 0
285 84 118 0
280 286 0
280 285 0
-280 -286 -285 0
28 287 0
28 130 0
-28 -287 -130 0
34 288 0
34 130 0
-34 -288 -130 0
54 289 0
54 135 0
-54 -289 -135 0
57 290 0
57 135 0
-57 -290 -135 0
66 291 0
66 135 0
-66 -291 -135 0
60 282 0
60 284 0
-60 -282 -284 0
-31 -191 0
-31 -192 0
31 191 192 0
-37 -193 0
-37 -195 0
37 193 195 0
-40 -196 0
-40 -198 0
40 196 198 0
292 -151 0
292 -136 0
-292 151 136 0
17 -292 0
17 -141 0
-17 292 141 0
293 -137 0
293 -153 0
-293 137 153 0
25 -293 0
25 -154 0
-25 293 154 0
30 -186 0
30 -175 0
-30 186 175 0
33 -215 0
33 -177 0
-33 215 177 0
36 -206 0
36 -179 0
-36 206 179 0
294 -219 0
294 -181 0
-294 219 181 0
39 -294 0
39 -221 0
-39 294 221 0
295 -210 0
295 -183 0
-295 210 183 0
42 -295 0
42 -190 0
-42 295 190 0
48 -167 0
48 -203 0
-48 167 203 0
296 -157 0
296 -143 0
-296 157 143 0
50 -296 0
50 -148 0
-50 296 148 0
53 -158 0
53 -144 0
-53 158 144 0
68 -200 0
68 -165 0
-68 200 165 0
70 -199 0
70 -164 0
-70 199 164 0
-138 14 0
-138 79 0
138 -14 -79 0
-140 92 0
-140 89 0
140 -92 -89 0
-147 87 0
-147 94 0
147 -87 -94 0
-297 14 0
-297 78 0
297 -14 -78 0
-150 297 0
-150 95 0
150 -297 -95 0
-152 14 0
-152 95 0
152 -14 -95 0
-156 96 0
-156 79 0
156 -96 -79 0
-161 112 0
-161 89 0
161 -112 -89 0
-298 93 0
-298 85 0
298 -93 -85 0
-168 298 0
-168 123 0
168 -298 -123 0
-299 93 0
-299 85 0
299 -93 -85 0
-169 299 0
-169 123 0
169 -299 -123 0
-300 103 0
-300 95 0
300 -103 -95 0
-171 300 0
-171 78 0
171 -300 -78 0
-176 106 0
-176 99 0
176 -106 -99 0
-178 110 0
-178 99 0
178 -110 -99 0
-180 114 0
-180 99 0
180 -114 -99 0
-182 118 0
-182 99 0
182 -118 -99 0
-184 84 0
-184 99 0
184 -84 -99 0
-301 95 0
-301 78 0
301 -95 -78 0
-187 301 0
-187 14 0
187 -301 -14 0
-302 119 0
-302 114 0
302 -119 -114 0
-189 302 0
-189 110 0
189 -302 -110 0
-194 130 0
-194 107 0
194 -130 -107 0
-303 130 0
-303 107 0
303 -130 -107 0
-197 303 0
-197 111 0
197 -303 -111 0
-304 93 0
-304 86 0
304 -93 -86 0
-202 304 0
-202 124 0
202 -304 -124 0
-305 115 0
-305 111 0
305 -115 -111 0
-207 305 0
-207 107 0
207 -305 -107 0
209 -84 0
209 -118 0
-209 84 118 0
-306 110 0
-306 107 0
306 -110 -107 0
-211 306 0
-211 208 0
211 -306 -208 0
213 -106 0
213 -102 0
-213 106 102 0
-307 78 0
-307 14 0
307 -78 -14 0
-216 307 0
-216 212 0
216 -307 -212 0
218 -162 0
218 -160 0
-218 162 160 0
-308 78 0
-308 14 0
308 -78 -14 0
-220 308 0
-220 212 0
220 -308 -212 0
-222 107 0
-222 100 0
222 -107 -100 0
-224 83 0
-224 135 0
224 -83 -135 0
-309 236 0
-309 243 0
309 -236 -243 0
-226 309 0
-226 234 0
226 -309 -234 0
231 -77 0
231 -79 0
-231 77 79 0
237 -87 0
237 -92 0
-237 87 92 0
310 -85 0
310 -92 0
-310 85 92 0
240 -310 0
240 -81 0
-240 310 81 0
311 -85 0
311 -92 0
-311 85 92 0
242 -311 0
242 -81 0
-242 311 81 0
245 -87 0
245 -94 0
-245 87 94 0
247 -94 0
247 -90 0
-247 94 90 0
312 -77 0
312 -78 0
-312 77 78 0
249 -312 0
249 -95 0
-249 312 95 0
313 -77 0
313 -79 0
-313 77 79 0
250 -313 0
250 -96 0
-250 313 96 0
252 -99 0
252 -106 0
-252 99 106 0
314 -99 0
314 -106 0
-314 99 106 0
254 -314 0
254 -115 0
-254 314 115 0
315 -102 0
315 -96 0
-315 102 96 0
256 -315 0
256 -79 0
-256 315 79 0
-259 114 0
-259 110 0
259 -114 -110 0
-316 80 0
-316 92 0
316 -80 -92 0
-261 316 0
-261 85 0
261 -316 -85 0
317 -15 0
317 -258 0
-317 15 258 0
263 -317 0
263 -260 0
-263 317 260 0
-318 88 0
-318 81 0
318 -88 -81 0
-265 318 0
-265 92 0
265 -318 -92 0
319 -15 0
319 -188 0
-319 15 188 0
266 -319 0
266 -264 0
-266 319 264 0
268 -172 0
268 -84 0
-268 172 84 0
269 -91 0
269 -15 0
-269 91 15 0
320 -173 0
320 -91 0
-320 173 91 0
271 -320 0
271 -84 0
-271 320 84 0
272 -80 0
272 -15 0
-272 80 15 0
-321 91 0
-321 85 0
321 -91 -85 0
-275 321 0
-275 119 0
275 -321 -119 0
322 -15 0
322 -273 0
-322 15 273 0
277 -322 0
277 -274 0
-277 322 274 0
323 -174 0
323 -142 0
-323 174 142 0
279 -323 0
279 -145 0
-279 323 145 0
281 -88 0
281 -15 0
-281 88 15 0
324 -51 0
324 -83 0
-324 51 83 0
283 -324 0
283 -90 0
-283 324 90 0
-325 114 0
-325 110 0
325 -114 -110 0
-286 325 0
-286 107 0
286 -325 -107 0
-287 248 0
-287 230 0
287 -248 -230 0
-326 253 0
-326 251 0
326 -253 -251 0
-288 326 0
-288 229 0
288 -326 -229 0
-327 241 0
-327 244 0
327 -241 -244 0
-289 327 0
-289 246 0
289 -327 -246 0
-328 239 0
-328 232 0
328 -239 -232 0
-290 328 0
-290 233 0
290 -328 -233 0
-329 235 0
-329 227 0
329 -235 -227 0
-291 329 0
-291 228 0
291 -329 -228 0
